网格化布局: grid_size=0.5, grid_w=120, grid_h=120
问题规模: 5 个模块, 4 对有连接的模块对
固定chiplet 0 的中心在方框中心 (30.00, 30.00)
非重叠约束: 10 对模块对（所有模块对），M=200（基板尺寸最大值）
目标函数: 1.0 * wirelength + 0.1 * area_proxy

开始求解ILP问题...
变量数量: 139
约束数量: 285
使用求解器: GLPK
GLPSOL: GLPK LP/MIP Solver, v4.65
Parameter(s) specified in the command line:
 --cpxlp /tmp/10f20fa507904e2095e199958416e01d-pulp.lp -o /tmp/10f20fa507904e2095e199958416e01d-pulp.out
 -w /tmp/10f20fa507904e2095e199958416e01d-pulp.sol --tmlim 300
Reading problem data from '/tmp/10f20fa507904e2095e199958416e01d-pulp.lp'...
285 rows, 139 columns, 923 non-zeros
86 integer variables, 66 of which are binary
444 lines were read
GLPK Integer Optimizer, v4.65
285 rows, 139 columns, 923 non-zeros
86 integer variables, 66 of which are binary
Preprocessing...
160 constraint coefficient(s) were reduced
235 rows, 111 columns, 625 non-zeros
72 integer variables, 64 of which are binary
Scaling...
 A: min|aij| =  1.000e-01  max|aij| =  6.000e+01  ratio =  6.000e+02
GM: min|aij| =  2.056e-01  max|aij| =  4.865e+00  ratio =  2.366e+01
EQ: min|aij| =  4.226e-02  max|aij| =  1.000e+00  ratio =  2.366e+01
2N: min|aij| =  2.500e-02  max|aij| =  1.500e+00  ratio =  6.000e+01
Constructing initial basis...
Size of triangular part is 235
Solving LP relaxation...
GLPK Simplex Optimizer, v4.65
235 rows, 111 columns, 625 non-zeros
      0: obj =   0.000000000e+00 inf =   1.361e+02 (37)
     47: obj =   3.333333333e-02 inf =   4.441e-15 (0)
OPTIMAL LP SOLUTION FOUND
Integer optimization begins...
Long-step dual simplex will be used
+    47: mip =     not found yet >=              -inf        (1; 0)
+   164: >>>>>   9.406666667e+01 >=   3.333333333e-02 100.0% (26; 1)
+   309: >>>>>   9.056666667e+01 >=   1.204000000e+01  86.7% (29; 19)
+   361: >>>>>   8.206666667e+01 >=   1.204000000e+01  85.3% (33; 20)
+   537: >>>>>   6.608333333e+01 >=   1.503233333e+01  77.3% (49; 30)
+  1134: >>>>>   6.107666667e+01 >=   2.507666667e+01  58.9% (117; 71)
+  3241: mip =   6.107666667e+01 >=     tree is empty   0.0% (0; 891)
INTEGER OPTIMAL SOLUTION FOUND
Time used:   0.1 secs
Memory used: 0.7 Mb (745847 bytes)
Writing MIP solution to '/tmp/10f20fa507904e2095e199958416e01d-pulp.out'...
Writing MIP solution to '/tmp/10f20fa507904e2095e199958416e01d-pulp.sol'...
433 lines were written

求解状态: Optimal
求解时间: 0.08 秒
目标函数值: 61.08

=== 解 1 ===
目标函数值: 61.0767

Chiplet坐标（左下角）:
  A: (22.00, 22.00)
  B: (25.00, 38.00)
  C: (35.00, 38.00)
  D: (9.00, 38.00)
  E: (43.00, 34.00)

Chiplet中心坐标:
  A: (30.00, 30.00)
  B: (30.00, 48.00)
  C: (45.00, 48.00)
  D: (17.00, 45.00)
  E: (45.00, 36.00)

重叠检查:
  ✓ 无重叠：所有chiplet之间都没有重叠

Chiplet对之间的距离:
  (A, B): 18.00
  (A, C): 33.00
  (A, D): 28.00
  (A, E): 21.00
  (B, C): 15.00
  (B, D): 16.00
  (B, E): 27.00
  (C, D): 31.00
  (C, E): 12.00
  (D, E): 37.00
[DEBUG 绘图] nodes数量: 5, layout中的chiplet数量: 5
[DEBUG 绘图] 绘制 A: 位置=(22.00, 22.00)
[DEBUG 绘图] 绘制 B: 位置=(25.00, 38.00)
[DEBUG 绘图] 绘制 C: 位置=(35.00, 38.00)
[DEBUG 绘图] 绘制 D: 位置=(9.00, 38.00)
[DEBUG 绘图] 绘制 E: 位置=(43.00, 34.00)
[DEBUG 绘图] 实际绘制了 5 个chiplet（共 5 个）
Ignoring fixed x limits to fulfill fixed data aspect with adjustable data limits.

布局图片已保存: /root/placement/thermal-placement/output/solution_1_layout.png
网格化布局: grid_size=0.5, grid_w=120, grid_h=120
问题规模: 5 个模块, 4 对有连接的模块对
固定chiplet 0 的中心在方框中心 (30.00, 30.00)
非重叠约束: 10 对模块对（所有模块对），M=200（基板尺寸最大值）
目标函数: 1.0 * wirelength + 0.1 * area_proxy

开始求解ILP问题...
变量数量: 218
约束数量: 446
使用求解器: GLPK
GLPSOL: GLPK LP/MIP Solver, v4.65
Parameter(s) specified in the command line:
 --cpxlp /tmp/88e0c6cdb6c546e597b465a555b342ed-pulp.lp -o /tmp/88e0c6cdb6c546e597b465a555b342ed-pulp.out
 -w /tmp/88e0c6cdb6c546e597b465a555b342ed-pulp.sol --tmlim 300
Reading problem data from '/tmp/88e0c6cdb6c546e597b465a555b342ed-pulp.lp'...
446 rows, 218 columns, 1316 non-zeros
125 integer variables, 105 of which are binary
752 lines were read
GLPK Integer Optimizer, v4.65
446 rows, 218 columns, 1316 non-zeros
125 integer variables, 105 of which are binary
Preprocessing...
22 hidden packing inequaliti(es) were detected
10 hidden covering inequaliti(es) were detected
208 constraint coefficient(s) were reduced
391 rows, 187 columns, 989 non-zeros
108 integer variables, 100 of which are binary
Scaling...
 A: min|aij| =  1.000e-01  max|aij| =  1.170e+02  ratio =  1.170e+03
GM: min|aij| =  2.056e-01  max|aij| =  4.865e+00  ratio =  2.366e+01
EQ: min|aij| =  4.226e-02  max|aij| =  1.000e+00  ratio =  2.366e+01
2N: min|aij| =  2.500e-02  max|aij| =  1.500e+00  ratio =  6.000e+01
Constructing initial basis...
Size of triangular part is 391
Solving LP relaxation...
GLPK Simplex Optimizer, v4.65
391 rows, 187 columns, 989 non-zeros
      0: obj =   0.000000000e+00 inf =   4.598e+02 (76)
     95: obj =   3.333333333e-02 inf =   1.510e-14 (0)
OPTIMAL LP SOLUTION FOUND
Integer optimization begins...
Long-step dual simplex will be used
+    95: mip =     not found yet >=              -inf        (1; 0)
+   323: >>>>>   6.908333333e+01 >=   3.333333333e-02 100.0% (40; 1)
+  6379: >>>>>   6.407666667e+01 >=   4.055583333e+01  36.7% (288; 336)
+  7699: >>>>>   6.107666667e+01 >=   4.505900000e+01  26.2% (254; 514)
+ 10096: mip =   6.107666667e+01 >=     tree is empty   0.0% (0; 1513)
INTEGER OPTIMAL SOLUTION FOUND
Time used:   0.2 secs
Memory used: 1.3 Mb (1382747 bytes)
Writing MIP solution to '/tmp/88e0c6cdb6c546e597b465a555b342ed-pulp.out'...
Writing MIP solution to '/tmp/88e0c6cdb6c546e597b465a555b342ed-pulp.sol'...
673 lines were written

求解状态: Optimal
求解时间: 0.25 秒
目标函数值: 61.08

=== 解 2 ===
目标函数值: 61.0767

Chiplet坐标（左下角）:
  A: (22.00, 22.00)
  B: (25.00, 2.00)
  C: (5.00, 0.00)
  D: (35.00, 6.00)
  E: (13.00, 20.00)

Chiplet中心坐标:
  A: (30.00, 30.00)
  B: (30.00, 12.00)
  C: (15.00, 10.00)
  D: (43.00, 13.00)
  E: (15.00, 22.00)

重叠检查:
  ✓ 无重叠：所有chiplet之间都没有重叠

Chiplet对之间的距离:
  (A, B): 18.00
  (A, C): 35.00
  (A, D): 30.00
  (A, E): 23.00
  (B, C): 17.00
  (B, D): 14.00
  (B, E): 25.00
  (C, D): 31.00
  (C, E): 12.00
  (D, E): 37.00

与上一解的变化:
  位置变化的chiplet: B, C, D, E
  距离变化的chiplet对: (A,C), (A,D), (A,E), (B,C), (B,D), (B,E)
[DEBUG 绘图] nodes数量: 5, layout中的chiplet数量: 5
[DEBUG 绘图] 绘制 A: 位置=(22.00, 22.00)
[DEBUG 绘图] 绘制 B: 位置=(25.00, 2.00)
[DEBUG 绘图] 绘制 C: 位置=(5.00, 0.00)
[DEBUG 绘图] 绘制 D: 位置=(35.00, 6.00)
[DEBUG 绘图] 绘制 E: 位置=(13.00, 20.00)
[DEBUG 绘图] 实际绘制了 5 个chiplet（共 5 个）
Ignoring fixed y limits to fulfill fixed data aspect with adjustable data limits.

布局图片已保存: /root/placement/thermal-placement/output/solution_2_layout.png
网格化布局: grid_size=0.5, grid_w=120, grid_h=120
问题规模: 5 个模块, 4 对有连接的模块对
固定chiplet 0 的中心在方框中心 (30.00, 30.00)
非重叠约束: 10 对模块对（所有模块对），M=200（基板尺寸最大值）
目标函数: 1.0 * wirelength + 0.1 * area_proxy

开始求解ILP问题...
变量数量: 297
约束数量: 607
使用求解器: GLPK
GLPSOL: GLPK LP/MIP Solver, v4.65
Parameter(s) specified in the command line:
 --cpxlp /tmp/c56568a2d3204fce893e5e181c02c9f2-pulp.lp -o /tmp/c56568a2d3204fce893e5e181c02c9f2-pulp.out
 -w /tmp/c56568a2d3204fce893e5e181c02c9f2-pulp.sol --tmlim 300
Reading problem data from '/tmp/c56568a2d3204fce893e5e181c02c9f2-pulp.lp'...
607 rows, 297 columns, 1709 non-zeros
164 integer variables, 144 of which are binary
1060 lines were read
GLPK Integer Optimizer, v4.65
607 rows, 297 columns, 1709 non-zeros
164 integer variables, 144 of which are binary
Preprocessing...
44 hidden packing inequaliti(es) were detected
20 hidden covering inequaliti(es) were detected
256 constraint coefficient(s) were reduced
547 rows, 263 columns, 1353 non-zeros
144 integer variables, 136 of which are binary
Scaling...
 A: min|aij| =  1.000e-01  max|aij| =  1.170e+02  ratio =  1.170e+03
GM: min|aij| =  2.056e-01  max|aij| =  4.865e+00  ratio =  2.366e+01
EQ: min|aij| =  4.226e-02  max|aij| =  1.000e+00  ratio =  2.366e+01
2N: min|aij| =  2.500e-02  max|aij| =  1.500e+00  ratio =  6.000e+01
Constructing initial basis...
Size of triangular part is 547
Solving LP relaxation...
GLPK Simplex Optimizer, v4.65
547 rows, 263 columns, 1353 non-zeros
      0: obj =   0.000000000e+00 inf =   7.781e+02 (113)
    140: obj =   3.333333333e-02 inf =   2.931e-14 (0)
OPTIMAL LP SOLUTION FOUND
Integer optimization begins...
Long-step dual simplex will be used
+   140: mip =     not found yet >=              -inf        (1; 0)
+   417: >>>>>   7.207666667e+01 >=   3.333333333e-02 100.0% (42; 1)
+  2094: >>>>>   7.159000000e+01 >=   1.305166667e+01  81.8% (167; 32)
+  7236: >>>>>   6.709000000e+01 >=   3.005900000e+01  55.2% (332; 288)
+  8272: >>>>>   6.608333333e+01 >=   3.055983167e+01  53.8% (343; 401)
+ 12317: >>>>>   6.107666667e+01 >=   4.255900000e+01  30.3% (346; 890)
+ 17085: mip =   6.107666667e+01 >=     tree is empty   0.0% (0; 2397)
INTEGER OPTIMAL SOLUTION FOUND
Time used:   0.6 secs
Memory used: 1.8 Mb (1896183 bytes)
Writing MIP solution to '/tmp/c56568a2d3204fce893e5e181c02c9f2-pulp.out'...
Writing MIP solution to '/tmp/c56568a2d3204fce893e5e181c02c9f2-pulp.sol'...
913 lines were written

求解状态: Optimal
求解时间: 0.58 秒
目标函数值: 61.08

=== 解 3 ===
目标函数值: 61.0767

Chiplet坐标（左下角）:
  A: (22.00, 22.00)
  B: (25.00, 38.00)
  C: (5.00, 38.00)
  D: (35.00, 38.00)
  E: (13.00, 34.00)

Chiplet中心坐标:
  A: (30.00, 30.00)
  B: (30.00, 48.00)
  C: (15.00, 48.00)
  D: (43.00, 45.00)
  E: (15.00, 36.00)

重叠检查:
  ✓ 无重叠：所有chiplet之间都没有重叠

Chiplet对之间的距离:
  (A, B): 18.00
  (A, C): 33.00
  (A, D): 28.00
  (A, E): 21.00
  (B, C): 15.00
  (B, D): 16.00
  (B, E): 27.00
  (C, D): 31.00
  (C, E): 12.00
  (D, E): 37.00

与上一解的变化:
  位置变化的chiplet: B, C, D, E
  距离变化的chiplet对: (A,C), (A,D), (A,E), (B,C), (B,D), (B,E)
[DEBUG 绘图] nodes数量: 5, layout中的chiplet数量: 5
[DEBUG 绘图] 绘制 A: 位置=(22.00, 22.00)
[DEBUG 绘图] 绘制 B: 位置=(25.00, 38.00)
[DEBUG 绘图] 绘制 C: 位置=(5.00, 38.00)
[DEBUG 绘图] 绘制 D: 位置=(35.00, 38.00)
[DEBUG 绘图] 绘制 E: 位置=(13.00, 34.00)
[DEBUG 绘图] 实际绘制了 5 个chiplet（共 5 个）
Ignoring fixed x limits to fulfill fixed data aspect with adjustable data limits.

布局图片已保存: /root/placement/thermal-placement/output/solution_3_layout.png
网格化布局: grid_size=0.5, grid_w=120, grid_h=120
问题规模: 5 个模块, 4 对有连接的模块对
固定chiplet 0 的中心在方框中心 (30.00, 30.00)
非重叠约束: 10 对模块对（所有模块对），M=200（基板尺寸最大值）
目标函数: 1.0 * wirelength + 0.1 * area_proxy

开始求解ILP问题...
变量数量: 376
约束数量: 768
使用求解器: GLPK
GLPSOL: GLPK LP/MIP Solver, v4.65
Parameter(s) specified in the command line:
 --cpxlp /tmp/de7b8d2913c3498aa6a2f1deac412176-pulp.lp -o /tmp/de7b8d2913c3498aa6a2f1deac412176-pulp.out
 -w /tmp/de7b8d2913c3498aa6a2f1deac412176-pulp.sol --tmlim 300
Reading problem data from '/tmp/de7b8d2913c3498aa6a2f1deac412176-pulp.lp'...
768 rows, 376 columns, 2102 non-zeros
203 integer variables, 183 of which are binary
1368 lines were read
GLPK Integer Optimizer, v4.65
768 rows, 376 columns, 2102 non-zeros
203 integer variables, 183 of which are binary
Preprocessing...
66 hidden packing inequaliti(es) were detected
30 hidden covering inequaliti(es) were detected
304 constraint coefficient(s) were reduced
703 rows, 339 columns, 1717 non-zeros
180 integer variables, 172 of which are binary
Scaling...
 A: min|aij| =  1.000e-01  max|aij| =  1.170e+02  ratio =  1.170e+03
GM: min|aij| =  2.056e-01  max|aij| =  4.865e+00  ratio =  2.366e+01
EQ: min|aij| =  4.226e-02  max|aij| =  1.000e+00  ratio =  2.366e+01
2N: min|aij| =  2.500e-02  max|aij| =  1.500e+00  ratio =  6.000e+01
Constructing initial basis...
Size of triangular part is 703
Solving LP relaxation...
GLPK Simplex Optimizer, v4.65
703 rows, 339 columns, 1717 non-zeros
      0: obj =   0.000000000e+00 inf =   1.101e+03 (152)
    188: obj =   3.333333333e-02 inf =   0.000e+00 (0) 1
OPTIMAL LP SOLUTION FOUND
Integer optimization begins...
Long-step dual simplex will be used
+   188: mip =     not found yet >=              -inf        (1; 0)
+   550: >>>>>   7.207666667e+01 >=   3.333333333e-02 100.0% (49; 1)
+  9720: >>>>>   6.608333333e+01 >=   3.056000000e+01  53.8% (406; 345)
+ 13786: >>>>>   6.407666667e+01 >=   4.209000000e+01  34.3% (360; 849)
+ 22888: >>>>>   6.107666667e+01 >=   5.857649833e+01   4.1% (179; 2152)
+ 23402: mip =   6.107666667e+01 >=     tree is empty   0.0% (0; 2873)
INTEGER OPTIMAL SOLUTION FOUND
Time used:   1.0 secs
Memory used: 2.4 Mb (2481849 bytes)
Writing MIP solution to '/tmp/de7b8d2913c3498aa6a2f1deac412176-pulp.out'...
Writing MIP solution to '/tmp/de7b8d2913c3498aa6a2f1deac412176-pulp.sol'...
1153 lines were written

求解状态: Optimal
求解时间: 0.97 秒
目标函数值: 61.08

=== 解 4 ===
目标函数值: 61.0767

Chiplet坐标（左下角）:
  A: (22.00, 22.00)
  B: (25.00, 2.00)
  C: (35.00, 0.00)
  D: (9.00, 6.00)
  E: (43.00, 20.00)

Chiplet中心坐标:
  A: (30.00, 30.00)
  B: (30.00, 12.00)
  C: (45.00, 10.00)
  D: (17.00, 13.00)
  E: (45.00, 22.00)

重叠检查:
  ✓ 无重叠：所有chiplet之间都没有重叠

Chiplet对之间的距离:
  (A, B): 18.00
  (A, C): 35.00
  (A, D): 30.00
  (A, E): 23.00
  (B, C): 17.00
  (B, D): 14.00
  (B, E): 25.00
  (C, D): 31.00
  (C, E): 12.00
  (D, E): 37.00

与上一解的变化:
  位置变化的chiplet: B, C, D, E
  距离变化的chiplet对: (A,C), (A,D), (A,E), (B,C), (B,D), (B,E)
[DEBUG 绘图] nodes数量: 5, layout中的chiplet数量: 5
[DEBUG 绘图] 绘制 A: 位置=(22.00, 22.00)
[DEBUG 绘图] 绘制 B: 位置=(25.00, 2.00)
[DEBUG 绘图] 绘制 C: 位置=(35.00, 0.00)
[DEBUG 绘图] 绘制 D: 位置=(9.00, 6.00)
[DEBUG 绘图] 绘制 E: 位置=(43.00, 20.00)
[DEBUG 绘图] 实际绘制了 5 个chiplet（共 5 个）
Ignoring fixed y limits to fulfill fixed data aspect with adjustable data limits.

布局图片已保存: /root/placement/thermal-placement/output/solution_4_layout.png
网格化布局: grid_size=0.5, grid_w=120, grid_h=120
问题规模: 5 个模块, 4 对有连接的模块对
固定chiplet 0 的中心在方框中心 (30.00, 30.00)
非重叠约束: 10 对模块对（所有模块对），M=200（基板尺寸最大值）
目标函数: 1.0 * wirelength + 0.1 * area_proxy

开始求解ILP问题...
变量数量: 455
约束数量: 929
使用求解器: GLPK
GLPSOL: GLPK LP/MIP Solver, v4.65
Parameter(s) specified in the command line:
 --cpxlp /tmp/52752bfe8de64d6ebfd823370cd05c62-pulp.lp -o /tmp/52752bfe8de64d6ebfd823370cd05c62-pulp.out
 -w /tmp/52752bfe8de64d6ebfd823370cd05c62-pulp.sol --tmlim 300
Reading problem data from '/tmp/52752bfe8de64d6ebfd823370cd05c62-pulp.lp'...
929 rows, 455 columns, 2495 non-zeros
242 integer variables, 222 of which are binary
1676 lines were read
GLPK Integer Optimizer, v4.65
929 rows, 455 columns, 2495 non-zeros
242 integer variables, 222 of which are binary
Preprocessing...
88 hidden packing inequaliti(es) were detected
40 hidden covering inequaliti(es) were detected
352 constraint coefficient(s) were reduced
859 rows, 415 columns, 2081 non-zeros
216 integer variables, 208 of which are binary
Scaling...
 A: min|aij| =  1.000e-01  max|aij| =  1.170e+02  ratio =  1.170e+03
GM: min|aij| =  2.056e-01  max|aij| =  4.865e+00  ratio =  2.366e+01
EQ: min|aij| =  4.226e-02  max|aij| =  1.000e+00  ratio =  2.366e+01
2N: min|aij| =  2.500e-02  max|aij| =  1.500e+00  ratio =  6.000e+01
Constructing initial basis...
Size of triangular part is 859
Solving LP relaxation...
GLPK Simplex Optimizer, v4.65
859 rows, 415 columns, 2081 non-zeros
      0: obj =   0.000000000e+00 inf =   1.420e+03 (189)
    231: obj =   3.333333333e-02 inf =   0.000e+00 (0) 1
OPTIMAL LP SOLUTION FOUND
Integer optimization begins...
Long-step dual simplex will be used
+   231: mip =     not found yet >=              -inf        (1; 0)
+  1113: >>>>>   7.508333333e+01 >=   3.333333333e-02 100.0% (84; 2)
+  2387: >>>>>   7.159000000e+01 >=   1.305166667e+01  81.8% (168; 35)
+ 10885: >>>>>   6.909000000e+01 >=   3.006000000e+01  56.5% (388; 165)
+ 16610: >>>>>   6.908333333e+01 >=   3.856000000e+01  44.2% (487; 581)
+ 17817: >>>>>   6.407666667e+01 >=   4.056000000e+01  36.7% (497; 641)
+ 41695: mip =   6.407666667e+01 >=     tree is empty   0.0% (0; 4345)
INTEGER OPTIMAL SOLUTION FOUND
Time used:   1.8 secs
Memory used: 3.1 Mb (3302365 bytes)
Writing MIP solution to '/tmp/52752bfe8de64d6ebfd823370cd05c62-pulp.out'...
Writing MIP solution to '/tmp/52752bfe8de64d6ebfd823370cd05c62-pulp.sol'...
1393 lines were written

求解状态: Optimal
求解时间: 1.83 秒
目标函数值: 64.08

=== 解 5 ===
目标函数值: 64.0767

Chiplet坐标（左下角）:
  A: (22.00, 22.00)
  B: (28.00, 38.00)
  C: (38.00, 38.00)
  D: (12.00, 38.00)
  E: (46.00, 34.00)

Chiplet中心坐标:
  A: (30.00, 30.00)
  B: (33.00, 48.00)
  C: (48.00, 48.00)
  D: (20.00, 45.00)
  E: (48.00, 36.00)

重叠检查:
  ✓ 无重叠：所有chiplet之间都没有重叠

Chiplet对之间的距离:
  (A, B): 21.00
  (A, C): 36.00
  (A, D): 25.00
  (A, E): 24.00
  (B, C): 15.00
  (B, D): 16.00
  (B, E): 27.00
  (C, D): 31.00
  (C, E): 12.00
  (D, E): 37.00

与上一解的变化:
  位置变化的chiplet: B, C, D, E
  距离变化的chiplet对: (A,B), (A,C), (A,D), (A,E), (B,C), (B,D), (B,E)
[DEBUG 绘图] nodes数量: 5, layout中的chiplet数量: 5
[DEBUG 绘图] 绘制 A: 位置=(22.00, 22.00)
[DEBUG 绘图] 绘制 B: 位置=(28.00, 38.00)
[DEBUG 绘图] 绘制 C: 位置=(38.00, 38.00)
[DEBUG 绘图] 绘制 D: 位置=(12.00, 38.00)
[DEBUG 绘图] 绘制 E: 位置=(46.00, 34.00)
[DEBUG 绘图] 实际绘制了 5 个chiplet（共 5 个）
Ignoring fixed x limits to fulfill fixed data aspect with adjustable data limits.

布局图片已保存: /root/placement/thermal-placement/output/solution_5_layout.png
网格化布局: grid_size=0.5, grid_w=120, grid_h=120
问题规模: 5 个模块, 4 对有连接的模块对
固定chiplet 0 的中心在方框中心 (30.00, 30.00)
非重叠约束: 10 对模块对（所有模块对），M=200（基板尺寸最大值）
目标函数: 1.0 * wirelength + 0.1 * area_proxy

开始求解ILP问题...
变量数量: 534
约束数量: 1090
使用求解器: GLPK
GLPSOL: GLPK LP/MIP Solver, v4.65
Parameter(s) specified in the command line:
 --cpxlp /tmp/a55ca380382d4ab2a26cc250e605ac3c-pulp.lp -o /tmp/a55ca380382d4ab2a26cc250e605ac3c-pulp.out
 -w /tmp/a55ca380382d4ab2a26cc250e605ac3c-pulp.sol --tmlim 300
Reading problem data from '/tmp/a55ca380382d4ab2a26cc250e605ac3c-pulp.lp'...
1090 rows, 534 columns, 2888 non-zeros
281 integer variables, 261 of which are binary
1984 lines were read
GLPK Integer Optimizer, v4.65
1090 rows, 534 columns, 2888 non-zeros
281 integer variables, 261 of which are binary
Preprocessing...
109 hidden packing inequaliti(es) were detected
49 hidden covering inequaliti(es) were detected
398 constraint coefficient(s) were reduced
1013 rows, 490 columns, 2439 non-zeros
251 integer variables, 243 of which are binary
Scaling...
 A: min|aij| =  1.000e-01  max|aij| =  1.170e+02  ratio =  1.170e+03
GM: min|aij| =  2.056e-01  max|aij| =  4.865e+00  ratio =  2.366e+01
EQ: min|aij| =  4.226e-02  max|aij| =  1.000e+00  ratio =  2.366e+01
2N: min|aij| =  2.500e-02  max|aij| =  1.500e+00  ratio =  6.000e+01
Constructing initial basis...
Size of triangular part is 1013
Solving LP relaxation...
GLPK Simplex Optimizer, v4.65
1013 rows, 490 columns, 2439 non-zeros
      0: obj =   0.000000000e+00 inf =   1.747e+03 (228)
    281: obj =   3.333333333e-02 inf =   0.000e+00 (0) 1
OPTIMAL LP SOLUTION FOUND
Integer optimization begins...
Long-step dual simplex will be used
+   281: mip =     not found yet >=              -inf        (1; 0)
+  1157: >>>>>   7.508333333e+01 >=   3.433333333e-02 100.0% (96; 2)
+  3029: >>>>>   6.407666667e+01 >=   1.254566833e+01  80.4% (199; 48)
+100549: mip =   6.407666667e+01 >=     tree is empty   0.0% (0; 10011)
INTEGER OPTIMAL SOLUTION FOUND
Time used:   5.0 secs
Memory used: 4.4 Mb (4566994 bytes)
Writing MIP solution to '/tmp/a55ca380382d4ab2a26cc250e605ac3c-pulp.out'...
Writing MIP solution to '/tmp/a55ca380382d4ab2a26cc250e605ac3c-pulp.sol'...
1633 lines were written

求解状态: Optimal
求解时间: 5.02 秒
目标函数值: 64.08

=== 解 6 ===
目标函数值: 64.0767

Chiplet坐标（左下角）:
  A: (22.00, 22.00)
  B: (25.50, 2.00)
  C: (35.50, 0.00)
  D: (9.50, 6.00)
  E: (46.00, 20.00)

Chiplet中心坐标:
  A: (30.00, 30.00)
  B: (30.50, 12.00)
  C: (45.50, 10.00)
  D: (17.50, 13.00)
  E: (48.00, 22.00)

重叠检查:
  ✓ 无重叠：所有chiplet之间都没有重叠

Chiplet对之间的距离:
  (A, B): 18.50
  (A, C): 35.50
  (A, D): 29.50
  (A, E): 26.00
  (B, C): 17.00
  (B, D): 14.00
  (B, E): 27.50
  (C, D): 31.00
  (C, E): 14.50
  (D, E): 39.50

与上一解的变化:
  位置变化的chiplet: B, C, D, E
  距离变化的chiplet对: (A,B), (A,C), (A,D), (A,E), (B,C), (B,D), (B,E), (C,E), (D,E)
[DEBUG 绘图] nodes数量: 5, layout中的chiplet数量: 5
[DEBUG 绘图] 绘制 A: 位置=(22.00, 22.00)
[DEBUG 绘图] 绘制 B: 位置=(25.50, 2.00)
[DEBUG 绘图] 绘制 C: 位置=(35.50, 0.00)
[DEBUG 绘图] 绘制 D: 位置=(9.50, 6.00)
[DEBUG 绘图] 绘制 E: 位置=(46.00, 20.00)
[DEBUG 绘图] 实际绘制了 5 个chiplet（共 5 个）
Ignoring fixed y limits to fulfill fixed data aspect with adjustable data limits.

布局图片已保存: /root/placement/thermal-placement/output/solution_6_layout.png
网格化布局: grid_size=0.5, grid_w=120, grid_h=120
问题规模: 5 个模块, 4 对有连接的模块对
固定chiplet 0 的中心在方框中心 (30.00, 30.00)
非重叠约束: 10 对模块对（所有模块对），M=200（基板尺寸最大值）
目标函数: 1.0 * wirelength + 0.1 * area_proxy

开始求解ILP问题...
变量数量: 613
约束数量: 1251
使用求解器: GLPK
GLPSOL: GLPK LP/MIP Solver, v4.65
Parameter(s) specified in the command line:
 --cpxlp /tmp/143e90db4ee248eab3953cce3312c4c5-pulp.lp -o /tmp/143e90db4ee248eab3953cce3312c4c5-pulp.out
 -w /tmp/143e90db4ee248eab3953cce3312c4c5-pulp.sol --tmlim 300
Reading problem data from '/tmp/143e90db4ee248eab3953cce3312c4c5-pulp.lp'...
1251 rows, 613 columns, 3281 non-zeros
320 integer variables, 300 of which are binary
2292 lines were read
GLPK Integer Optimizer, v4.65
1251 rows, 613 columns, 3281 non-zeros
320 integer variables, 300 of which are binary
Preprocessing...
131 hidden packing inequaliti(es) were detected
59 hidden covering inequaliti(es) were detected
446 constraint coefficient(s) were reduced
1169 rows, 566 columns, 2803 non-zeros
287 integer variables, 279 of which are binary
Scaling...
 A: min|aij| =  1.000e-01  max|aij| =  1.170e+02  ratio =  1.170e+03
GM: min|aij| =  2.056e-01  max|aij| =  4.865e+00  ratio =  2.366e+01
EQ: min|aij| =  4.226e-02  max|aij| =  1.000e+00  ratio =  2.366e+01
2N: min|aij| =  2.500e-02  max|aij| =  1.500e+00  ratio =  6.000e+01
Constructing initial basis...
Size of triangular part is 1169
Solving LP relaxation...
GLPK Simplex Optimizer, v4.65
1169 rows, 566 columns, 2803 non-zeros
      0: obj =   0.000000000e+00 inf =   2.069e+03 (265)
    324: obj =   3.333333333e-02 inf =   0.000e+00 (0) 1
OPTIMAL LP SOLUTION FOUND
Integer optimization begins...
Long-step dual simplex will be used
+   324: mip =     not found yet >=              -inf        (1; 0)
+  1346: >>>>>   7.508333333e+01 >=   3.433333333e-02 100.0% (110; 2)
+  2298: >>>>>   7.159000000e+01 >=   8.034333333e+00  88.8% (169; 41)
+  6696: >>>>>   7.109000000e+01 >=   1.305266667e+01  81.6% (394; 87)
+ 40448: >>>>>   6.457750000e+01 >=   2.355083167e+01  63.5% (943; 811)
+ 59238: >>>>>   6.407666667e+01 >=   3.856000000e+01  39.8% (903; 1866)
+145709: mip =   6.407666667e+01 >=   6.407566667e+01 < 0.1% (158; 12487)
+236588: mip =   6.407666667e+01 >=   6.407566667e+01 < 0.1% (124; 21500)
+264553: mip =   6.407666667e+01 >=     tree is empty   0.0% (0; 25061)
INTEGER OPTIMAL SOLUTION FOUND
Time used:   14.7 secs
Memory used: 6.1 Mb (6430536 bytes)
Writing MIP solution to '/tmp/143e90db4ee248eab3953cce3312c4c5-pulp.out'...
Writing MIP solution to '/tmp/143e90db4ee248eab3953cce3312c4c5-pulp.sol'...
1873 lines were written

求解状态: Optimal
求解时间: 14.75 秒
目标函数值: 64.08

=== 解 7 ===
目标函数值: 64.0767

Chiplet坐标（左下角）:
  A: (22.00, 22.00)
  B: (22.00, 2.00)
  C: (32.00, 2.00)
  D: (6.00, 8.00)
  E: (40.00, 22.00)

Chiplet中心坐标:
  A: (30.00, 30.00)
  B: (27.00, 12.00)
  C: (42.00, 12.00)
  D: (14.00, 15.00)
  E: (42.00, 24.00)

重叠检查:
  ✓ 无重叠：所有chiplet之间都没有重叠

Chiplet对之间的距离:
  (A, B): 21.00
  (A, C): 30.00
  (A, D): 31.00
  (A, E): 18.00
  (B, C): 15.00
  (B, D): 16.00
  (B, E): 27.00
  (C, D): 31.00
  (C, E): 12.00
  (D, E): 37.00

与上一解的变化:
  位置变化的chiplet: B, C, D, E
  距离变化的chiplet对: (A,B), (A,C), (A,D), (A,E), (B,C), (B,D), (B,E), (C,E), (D,E)
[DEBUG 绘图] nodes数量: 5, layout中的chiplet数量: 5
[DEBUG 绘图] 绘制 A: 位置=(22.00, 22.00)
[DEBUG 绘图] 绘制 B: 位置=(22.00, 2.00)
[DEBUG 绘图] 绘制 C: 位置=(32.00, 2.00)
[DEBUG 绘图] 绘制 D: 位置=(6.00, 8.00)
[DEBUG 绘图] 绘制 E: 位置=(40.00, 22.00)
[DEBUG 绘图] 实际绘制了 5 个chiplet（共 5 个）
Ignoring fixed x limits to fulfill fixed data aspect with adjustable data limits.

布局图片已保存: /root/placement/thermal-placement/output/solution_7_layout.png
网格化布局: grid_size=0.5, grid_w=120, grid_h=120
问题规模: 5 个模块, 4 对有连接的模块对
固定chiplet 0 的中心在方框中心 (30.00, 30.00)
非重叠约束: 10 对模块对（所有模块对），M=200（基板尺寸最大值）
目标函数: 1.0 * wirelength + 0.1 * area_proxy

开始求解ILP问题...
变量数量: 692
约束数量: 1412
使用求解器: GLPK
GLPSOL: GLPK LP/MIP Solver, v4.65
Parameter(s) specified in the command line:
 --cpxlp /tmp/ac0fe8f6819d42fab8007f3be5e165d1-pulp.lp -o /tmp/ac0fe8f6819d42fab8007f3be5e165d1-pulp.out
 -w /tmp/ac0fe8f6819d42fab8007f3be5e165d1-pulp.sol --tmlim 300
Reading problem data from '/tmp/ac0fe8f6819d42fab8007f3be5e165d1-pulp.lp'...
1412 rows, 692 columns, 3674 non-zeros
359 integer variables, 339 of which are binary
2600 lines were read
GLPK Integer Optimizer, v4.65
1412 rows, 692 columns, 3674 non-zeros
359 integer variables, 339 of which are binary
Preprocessing...
153 hidden packing inequaliti(es) were detected
69 hidden covering inequaliti(es) were detected
494 constraint coefficient(s) were reduced
1325 rows, 642 columns, 3167 non-zeros
323 integer variables, 315 of which are binary
Scaling...
 A: min|aij| =  1.000e-01  max|aij| =  1.170e+02  ratio =  1.170e+03
GM: min|aij| =  2.056e-01  max|aij| =  4.865e+00  ratio =  2.366e+01
EQ: min|aij| =  4.226e-02  max|aij| =  1.000e+00  ratio =  2.366e+01
2N: min|aij| =  2.500e-02  max|aij| =  1.500e+00  ratio =  6.000e+01
Constructing initial basis...
Size of triangular part is 1325
Solving LP relaxation...
GLPK Simplex Optimizer, v4.65
1325 rows, 642 columns, 3167 non-zeros
      0: obj =   0.000000000e+00 inf =   2.386e+03 (302)
    372: obj =   3.333333333e-02 inf =   0.000e+00 (0) 2
OPTIMAL LP SOLUTION FOUND
Integer optimization begins...
Long-step dual simplex will be used
+   372: mip =     not found yet >=              -inf        (1; 0)
+  1584: >>>>>   7.508333333e+01 >=   3.433333333e-02 100.0% (133; 2)
+  5179: >>>>>   6.658333333e+01 >=   1.254566833e+01  81.2% (285; 75)
+ 36728: >>>>>   6.457750000e+01 >=   2.355083167e+01  63.5% (766; 715)
+ 85280: >>>>>   6.407666667e+01 >=   5.607666667e+01  12.5% (553; 4193)
+108691: mip =   6.407666667e+01 >=   6.212000000e+01   3.1% (324; 25848)
+121271: mip =   6.407666667e+01 >=   6.212000000e+01   3.1% (325; 51007)
+134782: mip =   6.407666667e+01 >=   6.262000000e+01   2.3% (265; 76379)
+148022: mip =   6.407666667e+01 >=   6.262000000e+01   2.3% (355; 100216)
+161301: mip =   6.407666667e+01 >=   6.262000000e+01   2.3% (457; 123957)
+201131: mip =   6.407666667e+01 >=   6.407566667e+01 < 0.1% (309; 142481)
